15 4 
3238	3238	3238	3238	
887	549	986	
698	207	276	
714	179	309	
385	312	474	
876	476	565	
357	434	471	
672	477	916	
827	622	970	
578	991	1535	
398	606	981	
257	58	82	
785	286	470	
892	60	100	
395	743	1049	
371	476	659	
